p cnf 576 1628
-1 199 0 
1 530 0 
-98 -99 -101 0 
-98 99 101 0 
-99 -100 0 
-101 94 95 0 
-102 -103 104 0 
-102 -104 103 0 
-104 -105 -107 0 
-104 105 107 0 
-105 -106 0 
-9 -10 0 
-107 100 101 0 
-108 -109 110 0 
-108 -110 109 0 
-110 -111 -113 0 
-110 111 113 0 
-111 -112 0 
-113 106 107 0 
-114 -115 116 0 
-114 -116 115 0 
-116 -117 -119 0 
-116 117 119 0 
-10 114 0 
-10 11 0 
-117 -118 0 
-119 112 113 0 
-120 -121 0 
-121 122 0 
-121 195 0 
-122 123 0 
-122 191 0 
-123 124 0 
-123 187 0 
-124 125 0 
-124 183 0 
-125 126 0 
-125 179 0 
-126 127 0 
-126 175 0 
-11 108 0 
-11 12 0 
-127 128 0 
-127 171 0 
-128 129 0 
-128 167 0 
-129 130 0 
-129 163 0 
-130 131 0 
-130 159 0 
-131 132 0 
-131 155 0 
-132 133 0 
-132 151 0 
-133 134 0 
-133 147 0 
-134 135 0 
-134 143 0 
-135 136 0 
-135 139 0 
-136 -137 26 0 
-136 -26 137 0 
-12 102 0 
-12 13 0 
-137 138 0 
-138 -27 0 
-139 -140 31 0 
-139 -31 140 0 
-140 -141 -142 0 
-140 141 142 0 
-141 32 0 
-142 27 0 
-143 -144 37 0 
-143 -37 144 0 
-144 -145 -146 0 
-144 145 146 0 
-145 38 0 
-146 142 0 
-146 32 0 
-13 14 0 
-13 96 0 
-147 -148 43 0 
-147 -43 148 0 
-148 -149 -150 0 
-148 149 150 0 
-149 44 0 
-150 146 0 
-150 38 0 
-151 -152 49 0 
-151 -49 152 0 
-152 -153 -154 0 
-152 153 154 0 
-153 50 0 
-154 150 0 
-154 44 0 
-155 -156 55 0 
-155 -55 156 0 
-156 -157 -158 0 
-156 157 158 0 
-14 15 0 
-14 90 0 
-157 56 0 
-158 154 0 
-158 50 0 
-159 -160 61 0 
-159 -61 160 0 
-160 -161 -162 0 
-160 161 162 0 
-161 62 0 
-162 158 0 
-162 56 0 
-163 -164 67 0 
-163 -67 164 0 
-164 -165 -166 0 
-164 165 166 0 
-165 68 0 
-166 162 0 
-166 62 0 
-15 16 0 
-15 84 0 
-167 -168 73 0 
-167 -73 168 0 
-168 -169 -170 0 
-168 169 170 0 
-169 74 0 
-170 166 0 
-170 68 0 
-171 -172 79 0 
-171 -79 172 0 
-172 -173 -174 0 
-172 173 174 0 
-173 80 0 
-174 170 0 
-174 74 0 
-175 -176 85 0 
-175 -85 176 0 
-176 -177 -178 0 
-176 177 178 0 
-16 17 0 
-16 78 0 
-177 86 0 
-178 174 0 
-178 80 0 
-179 -180 91 0 
-179 -91 180 0 
-180 -181 -182 0 
-180 181 182 0 
-181 92 0 
-182 178 0 
-182 86 0 
-183 -97 184 0 
-183 -184 97 0 
-184 -185 -186 0 
-184 185 186 0 
-185 98 0 
-186 182 0 
-186 92 0 
-17 18 0 
-17 72 0 
-187 -103 188 0 
-187 -188 103 0 
-188 -189 -190 0 
-188 189 190 0 
-189 104 0 
-190 98 0 
-190 186 0 
-191 -109 192 0 
-191 -192 109 0 
-192 -193 -194 0 
-192 193 194 0 
-193 110 0 
-194 104 0 
-194 190 0 
-195 -115 196 0 
-195 -196 115 0 
-196 -197 -198 0 
-196 197 198 0 
-1 2 6 0 
-18 19 0 
-18 66 0 
-197 116 0 
-198 110 0 
-198 194 0 
-199 -200 201 0 
-199 200 373 0 
-200 -4 0 
-201 -7 202 0 
-201 7 295 0 
-202 203 0 
-202 290 0 
-203 204 0 
-203 285 0 
-204 205 0 
-204 280 0 
-205 206 0 
-205 275 0 
-206 207 0 
-206 270 0 
-19 20 0 
-19 60 0 
-207 208 0 
-207 265 0 
-208 209 0 
-208 260 0 
-209 210 0 
-209 255 0 
-210 211 0 
-210 250 0 
-211 212 0 
-211 245 0 
-212 213 0 
-212 240 0 
-213 214 0 
-213 235 0 
-214 215 0 
-214 230 0 
-215 216 0 
-215 225 0 
-216 217 0 
-216 221 0 
-20 21 0 
-20 54 0 
-217 -218 219 0 
-217 -219 218 0 
-219 220 0 
-220 -27 0 
-221 -222 223 0 
-221 -223 222 0 
-223 -224 -142 0 
-223 224 142 0 
-224 -32 0 
-225 -226 227 0 
-225 -227 226 0 
-21 22 0 
-21 48 0 
-227 -228 -229 0 
-227 228 229 0 
-228 -38 0 
-229 32 142 0 
-230 -231 232 0 
-230 -232 231 0 
-232 -233 -234 0 
-232 233 234 0 
-233 -44 0 
-234 38 229 0 
-235 -236 237 0 
-235 -237 236 0 
-22 23 0 
-22 42 0 
-237 -238 -239 0 
-237 238 239 0 
-238 -50 0 
-239 44 234 0 
-240 -241 242 0 
-240 -242 241 0 
-242 -243 -244 0 
-242 243 244 0 
-243 -56 0 
-244 50 239 0 
-245 -246 247 0 
-245 -247 246 0 
-23 24 0 
-23 36 0 
-247 -248 -249 0 
-247 248 249 0 
-248 -62 0 
-249 56 244 0 
-250 -251 252 0 
-250 -252 251 0 
-252 -253 -254 0 
-252 253 254 0 
-253 -68 0 
-254 62 249 0 
-255 -256 257 0 
-255 -257 256 0 
-24 25 0 
-24 30 0 
-257 -258 -259 0 
-257 258 259 0 
-258 -74 0 
-259 68 254 0 
-260 -261 262 0 
-260 -262 261 0 
-262 -263 -264 0 
-262 263 264 0 
-263 -80 0 
-264 74 259 0 
-265 -266 267 0 
-265 -267 266 0 
-25 -26 27 0 
-25 -27 26 0 
-267 -268 -269 0 
-267 268 269 0 
-268 -86 0 
-269 80 264 0 
-270 -271 272 0 
-270 -272 271 0 
-272 -273 -274 0 
-272 273 274 0 
-273 -92 0 
-274 86 269 0 
-275 -276 277 0 
-275 -277 276 0 
-277 -278 -279 0 
-277 278 279 0 
-278 -98 0 
-279 92 274 0 
-280 -281 282 0 
-280 -282 281 0 
-282 -283 -284 0 
-282 283 284 0 
-283 -104 0 
-284 98 279 0 
-285 -286 287 0 
-285 -287 286 0 
-27 28 0 
-287 -288 -289 0 
-287 288 289 0 
-288 -110 0 
-289 104 284 0 
-290 -291 292 0 
-290 -292 291 0 
-292 -293 -294 0 
-292 293 294 0 
-293 -116 0 
-294 110 289 0 
-295 296 0 
-295 369 0 
-296 297 0 
-296 365 0 
-2 -3 0 
-28 -29 0 
-297 298 0 
-297 361 0 
-298 299 0 
-298 357 0 
-299 300 0 
-299 353 0 
-300 301 0 
-300 349 0 
-301 302 0 
-301 345 0 
-302 303 0 
-302 341 0 
-303 304 0 
-303 337 0 
-304 305 0 
-304 333 0 
-305 306 0 
-305 329 0 
-306 307 0 
-306 325 0 
-307 308 0 
-307 321 0 
-308 309 0 
-308 317 0 
-309 310 0 
-309 313 0 
-310 -218 311 0 
-310 -311 218 0 
-311 312 0 
-312 -137 0 
-313 -222 314 0 
-313 -314 222 0 
-314 -315 -316 0 
-314 315 316 0 
-315 -140 0 
-316 137 0 
-317 -226 318 0 
-317 -318 226 0 
-318 -319 -320 0 
-318 319 320 0 
-319 -144 0 
-320 140 316 0 
-321 -231 322 0 
-321 -322 231 0 
-322 -323 -324 0 
-322 323 324 0 
-323 -148 0 
-324 144 320 0 
-325 -236 326 0 
-325 -326 236 0 
-326 -327 -328 0 
-326 327 328 0 
-30 -31 32 0 
-30 -32 31 0 
-327 -152 0 
-328 148 324 0 
-329 -241 330 0 
-329 -330 241 0 
-330 -331 -332 0 
-330 331 332 0 
-331 -156 0 
-332 152 328 0 
-333 -246 334 0 
-333 -334 246 0 
-334 -335 -336 0 
-334 335 336 0 
-335 -160 0 
-336 156 332 0 
-337 -251 338 0 
-337 -338 251 0 
-338 -339 -340 0 
-338 339 340 0 
-339 -164 0 
-340 160 336 0 
-341 -256 342 0 
-341 -342 256 0 
-342 -343 -344 0 
-342 343 344 0 
-343 -168 0 
-344 164 340 0 
-345 -261 346 0 
-345 -346 261 0 
-346 -347 -348 0 
-346 347 348 0 
-32 -33 -35 0 
-32 33 35 0 
-347 -172 0 
-348 168 344 0 
-349 -266 350 0 
-349 -350 266 0 
-350 -351 -352 0 
-350 351 352 0 
-351 -176 0 
-352 172 348 0 
-353 -271 354 0 
-353 -354 271 0 
-354 -355 -356 0 
-354 355 356 0 
-355 -180 0 
-356 176 352 0 
-33 -34 0 
-357 -276 358 0 
-357 -358 276 0 
-358 -359 -360 0 
-358 359 360 0 
-359 -184 0 
-360 180 356 0 
-361 -281 362 0 
-361 -362 281 0 
-362 -363 -364 0 
-362 363 364 0 
-363 -188 0 
-364 184 360 0 
-365 -286 366 0 
-365 -366 286 0 
-366 -367 -368 0 
-366 367 368 0 
-367 -192 0 
-368 188 364 0 
-369 -291 370 0 
-369 -370 291 0 
-370 -371 -372 0 
-370 371 372 0 
-371 -196 0 
-372 192 368 0 
-373 -7 374 0 
-373 7 452 0 
-374 375 0 
-374 448 0 
-375 376 0 
-375 444 0 
-376 377 0 
-376 440 0 
-35 29 0 
-377 378 0 
-377 436 0 
-378 379 0 
-378 432 0 
-379 380 0 
-379 428 0 
-380 381 0 
-380 424 0 
-381 382 0 
-381 420 0 
-382 383 0 
-382 416 0 
-383 384 0 
-383 412 0 
-384 385 0 
-384 408 0 
-385 386 0 
-385 404 0 
-386 387 0 
-386 400 0 
-36 -37 38 0 
-36 -38 37 0 
-387 388 0 
-387 396 0 
-388 389 0 
-388 392 0 
-389 -218 390 0 
-389 -390 218 0 
-390 -391 0 
-391 -29 0 
-392 -222 393 0 
-392 -393 222 0 
-393 -394 -395 0 
-393 394 395 0 
-394 -34 0 
-395 391 0 
-396 -226 397 0 
-396 -397 226 0 
-3 -4 5 0 
-3 -5 4 0 
-397 -398 -399 0 
-397 398 399 0 
-398 -40 0 
-399 394 0 
-399 395 0 
-400 -231 401 0 
-400 -401 231 0 
-401 -402 -403 0 
-401 402 403 0 
-402 -46 0 
-403 398 0 
-403 399 0 
-404 -236 405 0 
-404 -405 236 0 
-405 -406 -407 0 
-405 406 407 0 
-406 -52 0 
-38 -39 -41 0 
-38 39 41 0 
-407 402 0 
-407 403 0 
-408 -241 409 0 
-408 -409 241 0 
-409 -410 -411 0 
-409 410 411 0 
-410 -58 0 
-411 406 0 
-411 407 0 
-412 -246 413 0 
-412 -413 246 0 
-413 -414 -415 0 
-413 414 415 0 
-414 -64 0 
-415 410 0 
-415 411 0 
-416 -251 417 0 
-416 -417 251 0 
-39 -40 0 
-417 -418 -419 0 
-417 418 419 0 
-418 -70 0 
-419 414 0 
-419 415 0 
-420 -256 421 0 
-420 -421 256 0 
-421 -422 -423 0 
-421 422 423 0 
-422 -76 0 
-423 418 0 
-423 419 0 
-424 -261 425 0 
-424 -425 261 0 
-425 -426 -427 0 
-425 426 427 0 
-426 -82 0 
-427 422 0 
-427 423 0 
-428 -266 429 0 
-428 -429 266 0 
-429 -430 -431 0 
-429 430 431 0 
-430 -88 0 
-431 426 0 
-431 427 0 
-432 -271 433 0 
-432 -433 271 0 
-433 -434 -435 0 
-433 434 435 0 
-434 -94 0 
-435 430 0 
-435 431 0 
-436 -276 437 0 
-436 -437 276 0 
-41 34 35 0 
-437 -438 -439 0 
-437 438 439 0 
-438 -100 0 
-439 434 0 
-439 435 0 
-440 -281 441 0 
-440 -441 281 0 
-441 -442 -443 0 
-441 442 443 0 
-442 -106 0 
-443 438 0 
-443 439 0 
-444 -286 445 0 
-444 -445 286 0 
-445 -446 -447 0 
-445 446 447 0 
-446 -112 0 
-42 -43 44 0 
-42 -44 43 0 
-447 442 0 
-447 443 0 
-448 -291 449 0 
-448 -449 291 0 
-449 -450 -451 0 
-449 450 451 0 
-450 -118 0 
-451 446 0 
-451 447 0 
-452 453 0 
-452 526 0 
-453 454 0 
-453 522 0 
-454 455 0 
-454 518 0 
-455 456 0 
-455 514 0 
-456 457 0 
-456 510 0 
-457 458 0 
-457 506 0 
-458 459 0 
-458 502 0 
-459 460 0 
-459 498 0 
-460 461 0 
-460 494 0 
-461 462 0 
-461 490 0 
-462 463 0 
-462 486 0 
-463 464 0 
-463 482 0 
-464 465 0 
-464 478 0 
-465 466 0 
-465 474 0 
-466 467 0 
-466 470 0 
-44 -45 -47 0 
-44 45 47 0 
-467 -218 468 0 
-467 -468 218 0 
-468 469 0 
-469 -390 0 
-470 -222 471 0 
-470 -471 222 0 
-471 -472 -473 0 
-471 472 473 0 
-472 -393 0 
-473 390 0 
-474 -226 475 0 
-474 -475 226 0 
-475 -476 -477 0 
-475 476 477 0 
-476 -397 0 
-45 -46 0 
-477 393 473 0 
-478 -231 479 0 
-478 -479 231 0 
-479 -480 -481 0 
-479 480 481 0 
-480 -401 0 
-481 397 477 0 
-482 -236 483 0 
-482 -483 236 0 
-483 -484 -485 0 
-483 484 485 0 
-484 -405 0 
-485 401 481 0 
-486 -241 487 0 
-486 -487 241 0 
-487 -488 -489 0 
-487 488 489 0 
-488 -409 0 
-489 405 485 0 
-490 -246 491 0 
-490 -491 246 0 
-491 -492 -493 0 
-491 492 493 0 
-492 -413 0 
-493 409 489 0 
-494 -251 495 0 
-494 -495 251 0 
-495 -496 -497 0 
-495 496 497 0 
-496 -417 0 
-47 40 41 0 
-497 413 493 0 
-498 -256 499 0 
-498 -499 256 0 
-499 -500 -501 0 
-499 500 501 0 
-500 -421 0 
-501 417 497 0 
-502 -261 503 0 
-502 -503 261 0 
-503 -504 -505 0 
-503 504 505 0 
-504 -425 0 
-505 421 501 0 
-506 -266 507 0 
-506 -507 266 0 
-48 -49 50 0 
-48 -50 49 0 
-507 -508 -509 0 
-507 508 509 0 
-508 -429 0 
-509 425 505 0 
-510 -271 511 0 
-510 -511 271 0 
-511 -512 -513 0 
-511 512 513 0 
-512 -433 0 
-513 429 509 0 
-514 -276 515 0 
-514 -515 276 0 
-515 -516 -517 0 
-515 516 517 0 
-516 -437 0 
-517 433 513 0 
-518 -281 519 0 
-518 -519 281 0 
-519 -520 -521 0 
-519 520 521 0 
-520 -441 0 
-521 437 517 0 
-522 -286 523 0 
-522 -523 286 0 
-523 -524 -525 0 
-523 524 525 0 
-524 -445 0 
-525 441 521 0 
-526 -291 527 0 
-526 -527 291 0 
-50 -51 -53 0 
-50 51 53 0 
-527 -528 -529 0 
-527 528 529 0 
-528 -449 0 
-529 445 525 0 
-530 531 0 
-530 575 0 
-531 532 0 
-531 573 0 
-532 533 0 
-532 571 0 
-533 534 0 
-533 569 0 
-534 535 0 
-534 567 0 
-535 536 0 
-535 565 0 
-536 537 0 
-536 563 0 
-51 -52 0 
-537 538 0 
-537 561 0 
-538 539 0 
-538 559 0 
-539 540 0 
-539 557 0 
-540 541 0 
-540 555 0 
-541 542 0 
-541 553 0 
-542 543 0 
-542 551 0 
-543 544 0 
-543 549 0 
-544 545 0 
-544 547 0 
-545 -218 546 0 
-545 -546 218 0 
-547 -222 548 0 
-547 -548 222 0 
-549 -226 550 0 
-549 -550 226 0 
-551 -231 552 0 
-551 -552 231 0 
-553 -236 554 0 
-553 -554 236 0 
-555 -241 556 0 
-555 -556 241 0 
-53 46 47 0 
-557 -246 558 0 
-557 -558 246 0 
-559 -251 560 0 
-559 -560 251 0 
-561 -256 562 0 
-561 -562 256 0 
-563 -261 564 0 
-563 -564 261 0 
-565 -266 566 0 
-565 -566 266 0 
-54 -55 56 0 
-54 -56 55 0 
-567 -271 568 0 
-567 -568 271 0 
-569 -276 570 0 
-569 -570 276 0 
-571 -281 572 0 
-571 -572 281 0 
-573 -286 574 0 
-573 -574 286 0 
-575 -291 576 0 
-575 -576 291 0 
-56 -57 -59 0 
-56 57 59 0 
-57 -58 0 
-59 52 53 0 
-60 -61 62 0 
-60 -62 61 0 
-62 -63 -65 0 
-62 63 65 0 
-63 -64 0 
-65 58 59 0 
-66 -67 68 0 
-66 -68 67 0 
-6 -7 9 0 
-6 7 120 0 
-68 -69 -71 0 
-68 69 71 0 
-69 -70 0 
-71 64 65 0 
-72 -73 74 0 
-72 -74 73 0 
-74 -75 -77 0 
-74 75 77 0 
-75 -76 0 
-7 -8 0 
-77 70 71 0 
-78 -79 80 0 
-78 -80 79 0 
-80 -81 -83 0 
-80 81 83 0 
-81 -82 0 
-83 76 77 0 
-84 -85 86 0 
-84 -86 85 0 
-86 -87 -89 0 
-86 87 89 0 
-87 -88 0 
-89 82 83 0 
-90 -91 92 0 
-90 -92 91 0 
-92 -93 -95 0 
-92 93 95 0 
-93 -94 0 
-95 88 89 0 
-96 -97 98 0 
-96 -98 97 0 
98 -99 101 0 
98 -101 99 0 
99 100 0 
101 -94 0 
101 -95 0 
102 -103 -104 0 
102 103 104 0 
104 -105 107 0 
104 -107 105 0 
105 106 0 
9 10 0 
107 -100 0 
107 -101 0 
108 -109 -110 0 
108 109 110 0 
110 -111 113 0 
110 -113 111 0 
111 112 0 
113 -106 0 
113 -107 0 
114 -115 -116 0 
114 115 116 0 
116 -117 119 0 
116 -119 117 0 
10 -11 -114 0 
117 118 0 
119 -112 0 
119 -113 0 
120 121 0 
121 -122 -195 0 
122 -123 -191 0 
123 -124 -187 0 
124 -125 -183 0 
125 -126 -179 0 
126 -127 -175 0 
11 -12 -108 0 
127 -128 -171 0 
128 -129 -167 0 
129 -130 -163 0 
130 -131 -159 0 
131 -132 -155 0 
132 -133 -151 0 
133 -134 -147 0 
134 -135 -143 0 
135 -136 -139 0 
136 -26 -137 0 
136 26 137 0 
12 -13 -102 0 
137 -138 0 
138 27 0 
139 -31 -140 0 
139 31 140 0 
140 -141 142 0 
140 -142 141 0 
141 -32 0 
142 -27 0 
143 -37 -144 0 
143 37 144 0 
144 -145 146 0 
144 -146 145 0 
145 -38 0 
146 -32 -142 0 
13 -14 -96 0 
147 -43 -148 0 
147 43 148 0 
148 -149 150 0 
148 -150 149 0 
149 -44 0 
150 -38 -146 0 
151 -49 -152 0 
151 49 152 0 
152 -153 154 0 
152 -154 153 0 
153 -50 0 
154 -44 -150 0 
155 -55 -156 0 
155 55 156 0 
156 -157 158 0 
156 -158 157 0 
14 -15 -90 0 
157 -56 0 
158 -50 -154 0 
159 -61 -160 0 
159 61 160 0 
160 -161 162 0 
160 -162 161 0 
161 -62 0 
162 -56 -158 0 
163 -67 -164 0 
163 67 164 0 
164 -165 166 0 
164 -166 165 0 
165 -68 0 
166 -62 -162 0 
15 -16 -84 0 
167 -73 -168 0 
167 73 168 0 
168 -169 170 0 
168 -170 169 0 
169 -74 0 
170 -68 -166 0 
171 -79 -172 0 
171 79 172 0 
172 -173 174 0 
172 -174 173 0 
173 -80 0 
174 -74 -170 0 
175 -85 -176 0 
175 85 176 0 
176 -177 178 0 
176 -178 177 0 
16 -17 -78 0 
177 -86 0 
178 -80 -174 0 
179 -91 -180 0 
179 91 180 0 
180 -181 182 0 
180 -182 181 0 
181 -92 0 
182 -86 -178 0 
183 -97 -184 0 
183 97 184 0 
184 -185 186 0 
184 -186 185 0 
185 -98 0 
186 -92 -182 0 
17 -18 -72 0 
187 -103 -188 0 
187 103 188 0 
188 -189 190 0 
188 -190 189 0 
189 -104 0 
190 -98 -186 0 
191 -109 -192 0 
191 109 192 0 
192 -193 194 0 
192 -194 193 0 
193 -110 0 
194 -104 -190 0 
195 -115 -196 0 
195 115 196 0 
196 -197 198 0 
196 -198 197 0 
1 -2 0 
1 -6 0 
18 -19 -66 0 
197 -116 0 
198 -110 -194 0 
199 -200 -201 0 
199 -201 -373 0 
199 200 -373 0 
200 4 0 
201 -202 -295 0 
201 -7 -202 0 
201 7 -295 0 
202 -203 -290 0 
203 -204 -285 0 
204 -205 -280 0 
205 -206 -275 0 
206 -207 -270 0 
19 -20 -60 0 
207 -208 -265 0 
208 -209 -260 0 
209 -210 -255 0 
210 -211 -250 0 
211 -212 -245 0 
212 -213 -240 0 
213 -214 -235 0 
214 -215 -230 0 
215 -216 -225 0 
216 -217 -221 0 
20 -21 -54 0 
217 -218 -219 0 
217 218 219 0 
219 -220 0 
220 27 0 
221 -222 -223 0 
221 222 223 0 
223 -142 224 0 
223 -224 142 0 
224 32 0 
225 -226 -227 0 
225 226 227 0 
21 -22 -48 0 
227 -228 229 0 
227 -229 228 0 
228 38 0 
229 -142 0 
229 -32 0 
230 -231 -232 0 
230 231 232 0 
232 -233 234 0 
232 -234 233 0 
233 44 0 
234 -229 0 
234 -38 0 
235 -236 -237 0 
235 236 237 0 
22 -23 -42 0 
237 -238 239 0 
237 -239 238 0 
238 50 0 
239 -234 0 
239 -44 0 
240 -241 -242 0 
240 241 242 0 
242 -243 244 0 
242 -244 243 0 
243 56 0 
244 -239 0 
244 -50 0 
245 -246 -247 0 
245 246 247 0 
23 -24 -36 0 
247 -248 249 0 
247 -249 248 0 
248 62 0 
249 -244 0 
249 -56 0 
250 -251 -252 0 
250 251 252 0 
252 -253 254 0 
252 -254 253 0 
253 68 0 
254 -249 0 
254 -62 0 
255 -256 -257 0 
255 256 257 0 
24 -25 -30 0 
257 -258 259 0 
257 -259 258 0 
258 74 0 
259 -254 0 
259 -68 0 
260 -261 -262 0 
260 261 262 0 
262 -263 264 0 
262 -264 263 0 
263 80 0 
264 -259 0 
264 -74 0 
265 -266 -267 0 
265 266 267 0 
25 -26 -27 0 
25 26 27 0 
267 -268 269 0 
267 -269 268 0 
268 86 0 
269 -264 0 
269 -80 0 
270 -271 -272 0 
270 271 272 0 
272 -273 274 0 
272 -274 273 0 
273 92 0 
274 -269 0 
274 -86 0 
275 -276 -277 0 
275 276 277 0 
277 -278 279 0 
277 -279 278 0 
278 98 0 
279 -274 0 
279 -92 0 
280 -281 -282 0 
280 281 282 0 
282 -283 284 0 
282 -284 283 0 
283 104 0 
284 -98 0 
284 -279 0 
285 -286 -287 0 
285 286 287 0 
27 -28 0 
287 -288 289 0 
287 -289 288 0 
288 110 0 
289 -104 0 
289 -284 0 
290 -291 -292 0 
290 291 292 0 
292 -293 294 0 
292 -294 293 0 
293 116 0 
294 -110 0 
294 -289 0 
295 -296 -369 0 
296 -297 -365 0 
2 3 0 
28 29 0 
297 -298 -361 0 
298 -299 -357 0 
299 -300 -353 0 
300 -301 -349 0 
301 -302 -345 0 
302 -303 -341 0 
303 -304 -337 0 
304 -305 -333 0 
305 -306 -329 0 
306 -307 -325 0 
307 -308 -321 0 
308 -309 -317 0 
309 -310 -313 0 
310 -218 -311 0 
310 218 311 0 
311 -312 0 
312 137 0 
313 -222 -314 0 
313 222 314 0 
314 -315 316 0 
314 -316 315 0 
315 140 0 
316 -137 0 
317 -226 -318 0 
317 226 318 0 
318 -319 320 0 
318 -320 319 0 
319 144 0 
320 -140 0 
320 -316 0 
321 -231 -322 0 
321 231 322 0 
322 -323 324 0 
322 -324 323 0 
323 148 0 
324 -144 0 
324 -320 0 
325 -236 -326 0 
325 236 326 0 
326 -327 328 0 
326 -328 327 0 
30 -31 -32 0 
30 31 32 0 
327 152 0 
328 -148 0 
328 -324 0 
329 -241 -330 0 
329 241 330 0 
330 -331 332 0 
330 -332 331 0 
331 156 0 
332 -152 0 
332 -328 0 
333 -246 -334 0 
333 246 334 0 
334 -335 336 0 
334 -336 335 0 
335 160 0 
336 -156 0 
336 -332 0 
337 -251 -338 0 
337 251 338 0 
338 -339 340 0 
338 -340 339 0 
339 164 0 
340 -160 0 
340 -336 0 
341 -256 -342 0 
341 256 342 0 
342 -343 344 0 
342 -344 343 0 
343 168 0 
344 -164 0 
344 -340 0 
345 -261 -346 0 
345 261 346 0 
346 -347 348 0 
346 -348 347 0 
32 -33 35 0 
32 -35 33 0 
347 172 0 
348 -168 0 
348 -344 0 
349 -266 -350 0 
349 266 350 0 
350 -351 352 0 
350 -352 351 0 
351 176 0 
352 -172 0 
352 -348 0 
353 -271 -354 0 
353 271 354 0 
354 -355 356 0 
354 -356 355 0 
355 180 0 
356 -176 0 
356 -352 0 
33 34 0 
357 -276 -358 0 
357 276 358 0 
358 -359 360 0 
358 -360 359 0 
359 184 0 
360 -180 0 
360 -356 0 
361 -281 -362 0 
361 281 362 0 
362 -363 364 0 
362 -364 363 0 
363 188 0 
364 -184 0 
364 -360 0 
365 -286 -366 0 
365 286 366 0 
366 -367 368 0 
366 -368 367 0 
367 192 0 
368 -188 0 
368 -364 0 
369 -291 -370 0 
369 291 370 0 
370 -371 372 0 
370 -372 371 0 
371 196 0 
372 -192 0 
372 -368 0 
373 -374 -452 0 
373 -7 -374 0 
373 7 -452 0 
374 -375 -448 0 
375 -376 -444 0 
376 -377 -440 0 
35 -29 0 
377 -378 -436 0 
378 -379 -432 0 
379 -380 -428 0 
380 -381 -424 0 
381 -382 -420 0 
382 -383 -416 0 
383 -384 -412 0 
384 -385 -408 0 
385 -386 -404 0 
386 -387 -400 0 
36 -37 -38 0 
36 37 38 0 
387 -388 -396 0 
388 -389 -392 0 
389 -218 -390 0 
389 218 390 0 
390 391 0 
391 29 0 
392 -222 -393 0 
392 222 393 0 
393 -394 395 0 
393 -395 394 0 
394 34 0 
395 -391 0 
396 -226 -397 0 
396 226 397 0 
3 -4 -5 0 
3 4 5 0 
397 -398 399 0 
397 -399 398 0 
398 40 0 
399 -394 -395 0 
400 -231 -401 0 
400 231 401 0 
401 -402 403 0 
401 -403 402 0 
402 46 0 
403 -398 -399 0 
404 -236 -405 0 
404 236 405 0 
405 -406 407 0 
405 -407 406 0 
406 52 0 
38 -39 41 0 
38 -41 39 0 
407 -402 -403 0 
408 -241 -409 0 
408 241 409 0 
409 -410 411 0 
409 -411 410 0 
410 58 0 
411 -406 -407 0 
412 -246 -413 0 
412 246 413 0 
413 -414 415 0 
413 -415 414 0 
414 64 0 
415 -410 -411 0 
416 -251 -417 0 
416 251 417 0 
39 40 0 
417 -418 419 0 
417 -419 418 0 
418 70 0 
419 -414 -415 0 
420 -256 -421 0 
420 256 421 0 
421 -422 423 0 
421 -423 422 0 
422 76 0 
423 -418 -419 0 
424 -261 -425 0 
424 261 425 0 
425 -426 427 0 
425 -427 426 0 
426 82 0 
427 -422 -423 0 
428 -266 -429 0 
428 266 429 0 
429 -430 431 0 
429 -431 430 0 
430 88 0 
431 -426 -427 0 
432 -271 -433 0 
432 271 433 0 
433 -434 435 0 
433 -435 434 0 
434 94 0 
435 -430 -431 0 
436 -276 -437 0 
436 276 437 0 
41 -34 0 
41 -35 0 
437 -438 439 0 
437 -439 438 0 
438 100 0 
439 -434 -435 0 
440 -281 -441 0 
440 281 441 0 
441 -442 443 0 
441 -443 442 0 
442 106 0 
443 -438 -439 0 
444 -286 -445 0 
444 286 445 0 
445 -446 447 0 
445 -447 446 0 
446 112 0 
42 -43 -44 0 
42 43 44 0 
447 -442 -443 0 
448 -291 -449 0 
448 291 449 0 
449 -450 451 0 
449 -451 450 0 
450 118 0 
451 -446 -447 0 
452 -453 -526 0 
453 -454 -522 0 
454 -455 -518 0 
455 -456 -514 0 
456 -457 -510 0 
457 -458 -506 0 
458 -459 -502 0 
459 -460 -498 0 
460 -461 -494 0 
461 -462 -490 0 
462 -463 -486 0 
463 -464 -482 0 
464 -465 -478 0 
465 -466 -474 0 
466 -467 -470 0 
44 -45 47 0 
44 -47 45 0 
467 -218 -468 0 
467 218 468 0 
468 -469 0 
469 390 0 
470 -222 -471 0 
470 222 471 0 
471 -472 473 0 
471 -473 472 0 
472 393 0 
473 -390 0 
474 -226 -475 0 
474 226 475 0 
475 -476 477 0 
475 -477 476 0 
476 397 0 
45 46 0 
477 -393 0 
477 -473 0 
478 -231 -479 0 
478 231 479 0 
479 -480 481 0 
479 -481 480 0 
480 401 0 
481 -397 0 
481 -477 0 
482 -236 -483 0 
482 236 483 0 
483 -484 485 0 
483 -485 484 0 
484 405 0 
485 -401 0 
485 -481 0 
486 -241 -487 0 
486 241 487 0 
487 -488 489 0 
487 -489 488 0 
488 409 0 
489 -405 0 
489 -485 0 
490 -246 -491 0 
490 246 491 0 
491 -492 493 0 
491 -493 492 0 
492 413 0 
493 -409 0 
493 -489 0 
494 -251 -495 0 
494 251 495 0 
495 -496 497 0 
495 -497 496 0 
496 417 0 
47 -40 0 
47 -41 0 
497 -413 0 
497 -493 0 
498 -256 -499 0 
498 256 499 0 
499 -500 501 0 
499 -501 500 0 
500 421 0 
501 -417 0 
501 -497 0 
502 -261 -503 0 
502 261 503 0 
503 -504 505 0 
503 -505 504 0 
504 425 0 
505 -421 0 
505 -501 0 
506 -266 -507 0 
506 266 507 0 
48 -49 -50 0 
48 49 50 0 
507 -508 509 0 
507 -509 508 0 
508 429 0 
509 -425 0 
509 -505 0 
510 -271 -511 0 
510 271 511 0 
511 -512 513 0 
511 -513 512 0 
512 433 0 
513 -429 0 
513 -509 0 
514 -276 -515 0 
514 276 515 0 
515 -516 517 0 
515 -517 516 0 
516 437 0 
517 -433 0 
517 -513 0 
518 -281 -519 0 
518 281 519 0 
519 -520 521 0 
519 -521 520 0 
520 441 0 
521 -437 0 
521 -517 0 
522 -286 -523 0 
522 286 523 0 
523 -524 525 0 
523 -525 524 0 
524 445 0 
525 -441 0 
525 -521 0 
526 -291 -527 0 
526 291 527 0 
50 -51 53 0 
50 -53 51 0 
527 -528 529 0 
527 -529 528 0 
528 449 0 
529 -445 0 
529 -525 0 
530 -531 -575 0 
531 -532 -573 0 
532 -533 -571 0 
533 -534 -569 0 
534 -535 -567 0 
535 -536 -565 0 
536 -537 -563 0 
51 52 0 
537 -538 -561 0 
538 -539 -559 0 
539 -540 -557 0 
540 -541 -555 0 
541 -542 -553 0 
542 -543 -551 0 
543 -544 -549 0 
544 -545 -547 0 
545 -218 -546 0 
545 218 546 0 
547 -222 -548 0 
547 222 548 0 
549 -226 -550 0 
549 226 550 0 
551 -231 -552 0 
551 231 552 0 
553 -236 -554 0 
553 236 554 0 
555 -241 -556 0 
555 241 556 0 
53 -46 0 
53 -47 0 
557 -246 -558 0 
557 246 558 0 
559 -251 -560 0 
559 251 560 0 
561 -256 -562 0 
561 256 562 0 
563 -261 -564 0 
563 261 564 0 
565 -266 -566 0 
565 266 566 0 
54 -55 -56 0 
54 55 56 0 
567 -271 -568 0 
567 271 568 0 
569 -276 -570 0 
569 276 570 0 
571 -281 -572 0 
571 281 572 0 
573 -286 -574 0 
573 286 574 0 
575 -291 -576 0 
575 291 576 0 
56 -57 59 0 
56 -59 57 0 
57 58 0 
59 -52 0 
59 -53 0 
60 -61 -62 0 
60 61 62 0 
62 -63 65 0 
62 -65 63 0 
63 64 0 
65 -58 0 
65 -59 0 
66 -67 -68 0 
66 67 68 0 
6 -9 -120 0 
6 -7 -9 0 
6 7 -120 0 
68 -69 71 0 
68 -71 69 0 
69 70 0 
71 -64 0 
71 -65 0 
72 -73 -74 0 
72 73 74 0 
74 -75 77 0 
74 -77 75 0 
75 76 0 
7 8 0 
77 -70 0 
77 -71 0 
78 -79 -80 0 
78 79 80 0 
80 -81 83 0 
80 -83 81 0 
81 82 0 
83 -76 0 
83 -77 0 
84 -85 -86 0 
84 85 86 0 
86 -87 89 0 
86 -89 87 0 
87 88 0 
89 -82 0 
89 -83 0 
90 -91 -92 0 
90 91 92 0 
92 -93 95 0 
92 -95 93 0 
93 94 0 
95 -88 0 
95 -89 0 
96 -97 -98 0 
96 97 98 0 
